c A SAT instance generated from a 3-CNF formula that had 26 clauses and 13 variables
p cnf 13 26
7 -8 -10 0
-10 12 3 0
6 1 -2 0
-9 3 -10 0
1 6 -12 0
-1 6 3 0
-3 -10 -8 0
9 5 -8 0
-4 -3 -1 0
10 6 -12 0
6 -11 10 0
8 1 10 0
-13 -2 7 0
5 4 -8 0
-1 2 6 0
-1 -11 3 0
10 -3 -9 0
12 -1 -6 0
-12 -6 -8 0
-1 8 -10 0
-3 -6 13 0
-7 8 3 0
3 8 11 0
-3 8 7 0
-11 -6 -12 0
-4 2 3 0
